p cnf 24 102
-1 0
-2 0
-3 0
-4 0
21 0
22 0
23 0
24 0
-1 -2 3 4 0
1 2 -3 -4 0
-1 -3 2 4 0
1 3 -2 -4 0
-5 -6 7 8 0
5 6 -7 -8 0
-5 -7 6 8 0
5 7 -6 -8 0
-9 -10 11 12 0
9 10 -11 -12 0
-9 -11 10 12 0
9 11 -10 -12 0
-13 -14 15 16 0
13 14 -15 -16 0
-13 -15 14 16 0
13 15 -14 -16 0
-17 -18 19 20 0
17 18 -19 -20 0
-17 -19 18 20 0
17 19 -18 -20 0
-21 -22 23 24 0
21 22 -23 -24 0
-21 -23 22 24 0
21 23 -22 -24 0
-4 -8 0
4 8 0
-8 -12 0
8 12 0
-12 -16 0
12 16 0
-16 -20 0
16 20 0
-20 -24 0
20 24 0
-5 1 -6 2 0
-1 5 -6 2 0
-6 2 -7 3 0
-6 2 -3 7 0
-5 1 -2 6 0
-1 5 -2 6 0
-2 6 -7 3 0
-2 6 -3 7 0
-5 1 -7 3 0
-1 5 -7 3 0
-5 1 -3 7 0
-1 5 -3 7 0
-9 5 -10 6 0
-5 9 -10 6 0
-10 6 -11 7 0
-10 6 -7 11 0
-9 5 -6 10 0
-5 9 -6 10 0
-6 10 -11 7 0
-6 10 -7 11 0
-9 5 -11 7 0
-5 9 -11 7 0
-9 5 -7 11 0
-5 9 -7 11 0
-13 9 -14 10 0
-9 13 -14 10 0
-14 10 -15 11 0
-14 10 -11 15 0
-13 9 -10 14 0
-9 13 -10 14 0
-10 14 -15 11 0
-10 14 -11 15 0
-13 9 -15 11 0
-9 13 -15 11 0
-13 9 -11 15 0
-9 13 -11 15 0
-17 13 -18 14 0
-13 17 -18 14 0
-18 14 -19 15 0
-18 14 -15 19 0
-17 13 -14 18 0
-13 17 -14 18 0
-14 18 -19 15 0
-14 18 -15 19 0
-17 13 -19 15 0
-13 17 -19 15 0
-17 13 -15 19 0
-13 17 -15 19 0
-21 17 -22 18 0
-17 21 -22 18 0
-22 18 -23 19 0
-22 18 -19 23 0
-21 17 -18 22 0
-17 21 -18 22 0
-18 22 -23 19 0
-18 22 -19 23 0
-21 17 -23 19 0
-17 21 -23 19 0
-21 17 -19 23 0
-17 21 -19 23 0
